Route #1: 9 16 3 10 41 8 33 21 5 7 
Route #2: 44 24 27 40 19 30 11 34 
Route #3: 37 6 1 35 14 23 
Route #4: 15 22 20 18 17 
Route #5: 28 32 13 43 29 26 
Route #6: 31 38 2 25 12 39 36 4 42 
cost 1083.29
execution_time 38.071
